INCAR created by Atomic Simulation Environment
 ENCUT = 450.000000
 SIGMA = 0.050000
 ALGO = D
 GGA = PE
 PREC = N
 ICHARG = 11
 LMAXMIX = 2
 LCHARG = .FALSE.
 LDAU = .TRUE.
 LWAVE = .FALSE.
 LDAUL = 1
 LDAUU = -1.359
 LDAUJ = 0.000
