INCAR created by Atomic Simulation Environment
 ENCUT = 450.000000
 SIGMA = 0.050000
 ALGO = D
 GGA = PE
 PREC = N
 ICHARG = 11
 ISMEAR = 0
 KPAR = 6
 LMAXMIX = 2
 NBANDS = 54
 NCORE = 3
 LCHARG = .FALSE.
 LDAU = .TRUE.
 LWAVE = .FALSE.
 LDAUL = 1
 LDAUU = -2.331
 LDAUJ = 0.000
 ISPIN = 2
 MAGMOM = 2*0.0000 1*0.0000 2*0.0000 1*0.0000 
