band
50
Line_mode
Reciprocal
0.5 0.5 0.5 ! L
0.0 0.0 0.0 ! G

0.0 0.0 0.0 ! G
0.5 0.0 0.5 ! X

