In As 
 1.0000000000000000
     0.0000000000000000    3.0291999999999999    3.0291999999999999
     3.0291999999999999    0.0000000000000000    3.0291999999999999
     3.0291999999999999    3.0291999999999999    0.0000000000000000
 In  As 
   1   1
Direct
  0.0000000000000000  0.0000000000000000  0.0000000000000000
  0.7500000000000000  0.7500000000000000  0.7500000000000000
