Ge                                      
   1.00000000000000     
     0.0000000000000000    2.8165000000000000    2.8165000000000000
     2.8165000000000000    0.0000000000000000    2.8165000000000000
     2.8165000000000000    2.8165000000000000    0.0000000000000000
   Ge
     2
Direct
  0.0000000000000000  0.0000000000000000  0.0000000000000000
  0.2500000000000000  0.2500000000000000  0.2500000000000000
 
  0.00000000E+00  0.00000000E+00  0.00000000E+00
  0.00000000E+00  0.00000000E+00  0.00000000E+00
