Eu  S                                   
   1.00000000000000     
     0.0000000000000000    2.9840000000000000    2.9840000000000000
     2.9840000000000000    0.0000000000000000    2.9840000000000000
     2.9840000000000000    2.9840000000000000    0.0000000000000000
   Eu   S 
     1     1
Direct
  0.0000000000000000  0.0000000000000000  0.0000000000000000
  0.5000000000000000  0.5000000000000000  0.5000000000000000
 
  0.00000000E+00  0.00000000E+00  0.00000000E+00
  0.00000000E+00  0.00000000E+00  0.00000000E+00
