INCAR created by Atomic Simulation Environment
 ENCUT = 300.000000
 EDIFF = 1.00e-04
 ALGO = D
 GGA = PE
 ICHARG = 11
 ISMEAR = 0
 LMAXMIX = 6
 LORBIT = 11
 NBANDS = 100
 NELM = 500
 NCORE = 8
 SAXIS = 0.0000 0.0000 1.0000 
 LAECHG = .TRUE.
 LASPH = .TRUE.
 LCHARG = .FALSE.
 LDAU = .TRUE.
 LWAVE = .FALSE.
 LSORBIT = .TRUE.
 LDAUL = 3 -1
 LDAUU = 8.504 0.000
 LDAUJ = 0.000 0.000
 ISPIN = 2
 MAGMOM = 2*0.0000 1*7.0000 3*0.0000 
