Automatically generated mesh
30
Reciprocal lattice
    0.00000000000000    0.00000000000000    0.00000000000000             1
    0.20000000000000    0.00000000000000    0.00000000000000             8
    0.40000000000000    0.00000000000000    0.00000000000000             8
    0.20000000000000    0.20000000000000    0.00000000000000             6
    0.40000000000000    0.20000000000000    0.00000000000000            24
   -0.40000000000000    0.20000000000000    0.00000000000000            24
   -0.20000000000000    0.20000000000000    0.00000000000000            12
    0.40000000000000    0.40000000000000    0.00000000000000             6
   -0.40000000000000    0.40000000000000    0.00000000000000            12
   -0.40000000000000    0.40000000000000    0.20000000000000            24
0.5 0.5 0.5 0 L
0.4444444444444444 0.4444444444444444 0.4444444444444444 0
0.3888888888888889 0.3888888888888889 0.3888888888888889 0
0.33333333333333337 0.33333333333333337 0.33333333333333337 0
0.2777777777777778 0.2777777777777778 0.2777777777777778 0
0.2222222222222222 0.2222222222222222 0.2222222222222222 0
0.16666666666666669 0.16666666666666669 0.16666666666666669 0
0.11111111111111116 0.11111111111111116 0.11111111111111116 0
0.05555555555555558 0.05555555555555558 0.05555555555555558 0
0 0 0 0 G
0 0 0 0 G
0.05555555555555555 0.0 0.05555555555555555 0
0.1111111111111111 0.0 0.1111111111111111 0
0.16666666666666666 0.0 0.16666666666666666 0
0.2222222222222222 0.0 0.2222222222222222 0
0.2777777777777778 0.0 0.2777777777777778 0
0.3333333333333333 0.0 0.3333333333333333 0
0.38888888888888884 0.0 0.38888888888888884 0
0.4444444444444444 0.0 0.4444444444444444 0
0.5 0.0 0.5 0 X
