Automatically generated mesh
316
Reciprocal lattice
    0.00000000000000    0.00000000000000    0.00000000000000             1
    0.16666666666667    0.00000000000000    0.00000000000000             8
    0.33333333333333    0.00000000000000    0.00000000000000             8
    0.50000000000000    0.00000000000000    0.00000000000000             4
    0.16666666666667    0.16666666666667    0.00000000000000             6
    0.33333333333333    0.16666666666667    0.00000000000000            24
    0.50000000000000    0.16666666666667    0.00000000000000            24
   -0.33333333333333    0.16666666666667    0.00000000000000            24
   -0.16666666666667    0.16666666666667    0.00000000000000            12
    0.33333333333333    0.33333333333333    0.00000000000000             6
    0.50000000000000    0.33333333333333    0.00000000000000            24
   -0.33333333333333    0.33333333333333    0.00000000000000            12
    0.50000000000000    0.50000000000000    0.00000000000000             3
    0.50000000000000    0.33333333333333    0.16666666666667            24
   -0.33333333333333    0.33333333333333    0.16666666666667            24
   -0.33333333333333    0.50000000000000    0.16666666666667            12
0.5 0.5 1.0 0 X
0.49744897959183676 0.49744897959183676 0.9948979591836735 0
0.49489795918367346 0.49489795918367346 0.9897959183673469 0
0.4923469387755102 0.4923469387755102 0.9846938775510204 0
0.4897959183673469 0.4897959183673469 0.9795918367346939 0
0.4872448979591837 0.4872448979591837 0.9744897959183674 0
0.4846938775510204 0.4846938775510204 0.9693877551020408 0
0.48214285714285715 0.48214285714285715 0.9642857142857143 0
0.47959183673469385 0.47959183673469385 0.9591836734693877 0
0.4770408163265306 0.4770408163265306 0.9540816326530612 0
0.4744897959183674 0.4744897959183674 0.9489795918367347 0
0.4719387755102041 0.4719387755102041 0.9438775510204082 0
0.46938775510204084 0.46938775510204084 0.9387755102040817 0
0.46683673469387754 0.46683673469387754 0.9336734693877551 0
0.4642857142857143 0.4642857142857143 0.9285714285714286 0
0.461734693877551 0.461734693877551 0.923469387755102 0
0.45918367346938777 0.45918367346938777 0.9183673469387755 0
0.45663265306122447 0.45663265306122447 0.9132653061224489 0
0.45408163265306123 0.45408163265306123 0.9081632653061225 0
0.451530612244898 0.451530612244898 0.903061224489796 0
0.4489795918367347 0.4489795918367347 0.8979591836734694 0
0.44642857142857145 0.44642857142857145 0.8928571428571429 0
0.44387755102040816 0.44387755102040816 0.8877551020408163 0
0.4413265306122449 0.4413265306122449 0.8826530612244898 0
0.4387755102040816 0.4387755102040816 0.8775510204081632 0
0.4362244897959184 0.4362244897959184 0.8724489795918368 0
0.4336734693877551 0.4336734693877551 0.8673469387755102 0
0.43112244897959184 0.43112244897959184 0.8622448979591837 0
0.4285714285714286 0.4285714285714286 0.8571428571428572 0
0.4260204081632653 0.4260204081632653 0.8520408163265306 0
0.42346938775510207 0.42346938775510207 0.8469387755102041 0
0.42091836734693877 0.42091836734693877 0.8418367346938775 0
0.41836734693877553 0.41836734693877553 0.8367346938775511 0
0.41581632653061223 0.41581632653061223 0.8316326530612245 0
0.413265306122449 0.413265306122449 0.826530612244898 0
0.4107142857142857 0.4107142857142857 0.8214285714285714 0
0.40816326530612246 0.40816326530612246 0.8163265306122449 0
0.4056122448979592 0.4056122448979592 0.8112244897959184 0
0.4030612244897959 0.4030612244897959 0.8061224489795918 0
0.4005102040816327 0.4005102040816327 0.8010204081632654 0
0.3979591836734694 0.3979591836734694 0.7959183673469388 0
0.39540816326530615 0.39540816326530615 0.7908163265306123 0
0.39285714285714285 0.39285714285714285 0.7857142857142857 0
0.3903061224489796 0.3903061224489796 0.7806122448979592 0
0.3877551020408163 0.3877551020408163 0.7755102040816326 0
0.3852040816326531 0.3852040816326531 0.7704081632653061 0
0.38265306122448983 0.38265306122448983 0.7653061224489797 0
0.38010204081632654 0.38010204081632654 0.7602040816326531 0
0.37755102040816324 0.37755102040816324 0.7551020408163265 0
0.375 0.375 0.75 0 K
0.375 0.375 0.75 0 K
0.3673469387755102 0.3673469387755102 0.7346938775510204 0
0.3596938775510204 0.3596938775510204 0.7193877551020408 0
0.3520408163265306 0.3520408163265306 0.7040816326530612 0
0.34438775510204084 0.34438775510204084 0.6887755102040817 0
0.336734693877551 0.336734693877551 0.673469387755102 0
0.32908163265306123 0.32908163265306123 0.6581632653061225 0
0.32142857142857145 0.32142857142857145 0.6428571428571429 0
0.3137755102040816 0.3137755102040816 0.6275510204081632 0
0.30612244897959184 0.30612244897959184 0.6122448979591837 0
0.298469387755102 0.298469387755102 0.596938775510204 0
0.29081632653061223 0.29081632653061223 0.5816326530612245 0
0.28316326530612246 0.28316326530612246 0.5663265306122449 0
0.2755102040816326 0.2755102040816326 0.5510204081632653 0
0.26785714285714285 0.26785714285714285 0.5357142857142857 0
0.2602040816326531 0.2602040816326531 0.5204081632653061 0
0.25255102040816324 0.25255102040816324 0.5051020408163265 0
0.24489795918367346 0.24489795918367346 0.4897959183673469 0
0.2372448979591837 0.2372448979591837 0.4744897959183674 0
0.22959183673469388 0.22959183673469388 0.45918367346938777 0
0.22193877551020408 0.22193877551020408 0.44387755102040816 0
0.2142857142857143 0.2142857142857143 0.4285714285714286 0
0.2066326530612245 0.2066326530612245 0.413265306122449 0
0.1989795918367347 0.1989795918367347 0.3979591836734694 0
0.19132653061224492 0.19132653061224492 0.38265306122448983 0
0.1836734693877551 0.1836734693877551 0.3673469387755102 0
0.1760204081632653 0.1760204081632653 0.3520408163265306 0
0.1683673469387755 0.1683673469387755 0.336734693877551 0
0.16071428571428573 0.16071428571428573 0.32142857142857145 0
0.15306122448979592 0.15306122448979592 0.30612244897959184 0
0.14540816326530612 0.14540816326530612 0.29081632653061223 0
0.13775510204081634 0.13775510204081634 0.2755102040816327 0
0.13010204081632654 0.13010204081632654 0.2602040816326531 0
0.12244897959183676 0.12244897959183676 0.24489795918367352 0
0.11479591836734693 0.11479591836734693 0.22959183673469385 0
0.10714285714285715 0.10714285714285715 0.2142857142857143 0
0.09948979591836737 0.09948979591836737 0.19897959183673475 0
0.09183673469387754 0.09183673469387754 0.18367346938775508 0
0.08418367346938777 0.08418367346938777 0.16836734693877553 0
0.07653061224489799 0.07653061224489799 0.15306122448979598 0
0.06887755102040816 0.06887755102040816 0.1377551020408163 0
0.06122448979591838 0.06122448979591838 0.12244897959183676 0
0.0535714285714286 0.0535714285714286 0.1071428571428572 0
0.04591836734693877 0.04591836734693877 0.09183673469387754 0
0.038265306122448994 0.038265306122448994 0.07653061224489799 0
0.030612244897959218 0.030612244897959218 0.061224489795918435 0
0.022959183673469385 0.022959183673469385 0.04591836734693877 0
0.015306122448979609 0.015306122448979609 0.030612244897959218 0
0.007653061224489832 0.007653061224489832 0.015306122448979664 0
0.0 0.0 0.0 0 G
0.0 0.0 0.0 0 G
0.01020408163265306 0.01020408163265306 0.01020408163265306 0
0.02040816326530612 0.02040816326530612 0.02040816326530612 0
0.030612244897959183 0.030612244897959183 0.030612244897959183 0
0.04081632653061224 0.04081632653061224 0.04081632653061224 0
0.0510204081632653 0.0510204081632653 0.0510204081632653 0
0.061224489795918366 0.061224489795918366 0.061224489795918366 0
0.07142857142857142 0.07142857142857142 0.07142857142857142 0
0.08163265306122448 0.08163265306122448 0.08163265306122448 0
0.09183673469387754 0.09183673469387754 0.09183673469387754 0
0.1020408163265306 0.1020408163265306 0.1020408163265306 0
0.11224489795918366 0.11224489795918366 0.11224489795918366 0
0.12244897959183673 0.12244897959183673 0.12244897959183673 0
0.13265306122448978 0.13265306122448978 0.13265306122448978 0
0.14285714285714285 0.14285714285714285 0.14285714285714285 0
0.1530612244897959 0.1530612244897959 0.1530612244897959 0
0.16326530612244897 0.16326530612244897 0.16326530612244897 0
0.17346938775510204 0.17346938775510204 0.17346938775510204 0
0.18367346938775508 0.18367346938775508 0.18367346938775508 0
0.19387755102040816 0.19387755102040816 0.19387755102040816 0
0.2040816326530612 0.2040816326530612 0.2040816326530612 0
0.21428571428571427 0.21428571428571427 0.21428571428571427 0
0.22448979591836732 0.22448979591836732 0.22448979591836732 0
0.2346938775510204 0.2346938775510204 0.2346938775510204 0
0.24489795918367346 0.24489795918367346 0.24489795918367346 0
0.25510204081632654 0.25510204081632654 0.25510204081632654 0
0.26530612244897955 0.26530612244897955 0.26530612244897955 0
0.2755102040816326 0.2755102040816326 0.2755102040816326 0
0.2857142857142857 0.2857142857142857 0.2857142857142857 0
0.29591836734693877 0.29591836734693877 0.29591836734693877 0
0.3061224489795918 0.3061224489795918 0.3061224489795918 0
0.31632653061224486 0.31632653061224486 0.31632653061224486 0
0.32653061224489793 0.32653061224489793 0.32653061224489793 0
0.336734693877551 0.336734693877551 0.336734693877551 0
0.3469387755102041 0.3469387755102041 0.3469387755102041 0
0.3571428571428571 0.3571428571428571 0.3571428571428571 0
0.36734693877551017 0.36734693877551017 0.36734693877551017 0
0.37755102040816324 0.37755102040816324 0.37755102040816324 0
0.3877551020408163 0.3877551020408163 0.3877551020408163 0
0.39795918367346933 0.39795918367346933 0.39795918367346933 0
0.4081632653061224 0.4081632653061224 0.4081632653061224 0
0.4183673469387755 0.4183673469387755 0.4183673469387755 0
0.42857142857142855 0.42857142857142855 0.42857142857142855 0
0.4387755102040816 0.4387755102040816 0.4387755102040816 0
0.44897959183673464 0.44897959183673464 0.44897959183673464 0
0.4591836734693877 0.4591836734693877 0.4591836734693877 0
0.4693877551020408 0.4693877551020408 0.4693877551020408 0
0.47959183673469385 0.47959183673469385 0.47959183673469385 0
0.4897959183673469 0.4897959183673469 0.4897959183673469 0
0.5 0.5 0.5 0 L
0.5 0.5 0.5 0 L
0.5 0.49489795918367346 0.5051020408163265 0
0.5 0.4897959183673469 0.5102040816326531 0
0.5 0.4846938775510204 0.5153061224489796 0
0.5 0.47959183673469385 0.5204081632653061 0
0.5 0.4744897959183674 0.5255102040816326 0
0.5 0.46938775510204084 0.5306122448979592 0
0.5 0.4642857142857143 0.5357142857142857 0
0.5 0.45918367346938777 0.5408163265306123 0
0.5 0.45408163265306123 0.5459183673469388 0
0.5 0.4489795918367347 0.5510204081632653 0
0.5 0.44387755102040816 0.5561224489795918 0
0.5 0.4387755102040816 0.5612244897959183 0
0.5 0.4336734693877551 0.5663265306122449 0
0.5 0.4285714285714286 0.5714285714285714 0
0.5 0.42346938775510207 0.576530612244898 0
0.5 0.41836734693877553 0.5816326530612245 0
0.5 0.413265306122449 0.5867346938775511 0
0.5 0.40816326530612246 0.5918367346938775 0
0.5 0.4030612244897959 0.596938775510204 0
0.5 0.3979591836734694 0.6020408163265306 0
0.5 0.39285714285714285 0.6071428571428571 0
0.5 0.3877551020408163 0.6122448979591837 0
0.5 0.38265306122448983 0.6173469387755102 0
0.5 0.37755102040816324 0.6224489795918368 0
0.5 0.37244897959183676 0.6275510204081632 0
0.5 0.3673469387755102 0.6326530612244898 0
0.5 0.3622448979591837 0.6377551020408163 0
0.5 0.35714285714285715 0.6428571428571428 0
0.5 0.3520408163265306 0.6479591836734694 0
0.5 0.34693877551020413 0.6530612244897959 0
0.5 0.34183673469387754 0.6581632653061225 0
0.5 0.33673469387755106 0.6632653061224489 0
0.5 0.33163265306122447 0.6683673469387755 0
0.5 0.326530612244898 0.673469387755102 0
0.5 0.32142857142857145 0.6785714285714286 0
0.5 0.3163265306122449 0.6836734693877551 0
0.5 0.3112244897959184 0.6887755102040816 0
0.5 0.30612244897959184 0.6938775510204082 0
0.5 0.30102040816326536 0.6989795918367346 0
0.5 0.29591836734693877 0.7040816326530612 0
0.5 0.2908163265306123 0.7091836734693877 0
0.5 0.2857142857142857 0.7142857142857143 0
0.5 0.2806122448979592 0.7193877551020408 0
0.5 0.2755102040816327 0.7244897959183674 0
0.5 0.27040816326530615 0.7295918367346939 0
0.5 0.2653061224489796 0.7346938775510203 0
0.5 0.2602040816326531 0.7397959183673469 0
0.5 0.25510204081632654 0.7448979591836735 0
0.5 0.25 0.75 0 W
0.5 0.25 0.75 0 W
0.5 0.24489795918367346 0.7448979591836735 0
0.5 0.23979591836734693 0.7397959183673469 0
0.5 0.23469387755102042 0.7346938775510204 0
0.5 0.22959183673469388 0.7295918367346939 0
0.5 0.22448979591836735 0.7244897959183674 0
0.5 0.2193877551020408 0.7193877551020408 0
0.5 0.2142857142857143 0.7142857142857143 0
0.5 0.20918367346938777 0.7091836734693877 0
0.5 0.20408163265306123 0.7040816326530612 0
0.5 0.1989795918367347 0.6989795918367347 0
0.5 0.19387755102040816 0.6938775510204082 0
0.5 0.18877551020408162 0.6887755102040817 0
0.5 0.1836734693877551 0.6836734693877551 0
0.5 0.17857142857142858 0.6785714285714286 0
0.5 0.17346938775510207 0.673469387755102 0
0.5 0.16836734693877553 0.6683673469387755 0
0.5 0.163265306122449 0.6632653061224489 0
0.5 0.15816326530612246 0.6581632653061225 0
0.5 0.15306122448979592 0.653061224489796 0
0.5 0.14795918367346939 0.6479591836734694 0
0.5 0.14285714285714285 0.6428571428571429 0
0.5 0.13775510204081634 0.6377551020408163 0
0.5 0.1326530612244898 0.6326530612244898 0
0.5 0.12755102040816327 0.6275510204081632 0
0.5 0.12244897959183673 0.6224489795918368 0
0.5 0.11734693877551022 0.6173469387755102 0
0.5 0.11224489795918369 0.6122448979591837 0
0.5 0.10714285714285715 0.6071428571428572 0
0.5 0.10204081632653061 0.6020408163265306 0
0.5 0.0969387755102041 0.5969387755102041 0
0.5 0.09183673469387757 0.5918367346938775 0
0.5 0.08673469387755103 0.5867346938775511 0
0.5 0.0816326530612245 0.5816326530612245 0
0.5 0.07653061224489796 0.576530612244898 0
0.5 0.07142857142857145 0.5714285714285714 0
0.5 0.06632653061224492 0.5663265306122449 0
0.5 0.06122448979591838 0.5612244897959184 0
0.5 0.056122448979591844 0.5561224489795918 0
0.5 0.051020408163265335 0.5510204081632654 0
0.5 0.0459183673469388 0.5459183673469388 0
0.5 0.04081632653061226 0.5408163265306123 0
0.5 0.035714285714285726 0.5357142857142857 0
0.5 0.03061224489795919 0.5306122448979592 0
0.5 0.02551020408163268 0.5255102040816326 0
0.5 0.020408163265306145 0.5204081632653061 0
0.5 0.015306122448979609 0.5153061224489797 0
0.5 0.010204081632653073 0.5102040816326531 0
0.5 0.005102040816326536 0.5051020408163265 0
0.5 0.0 0.5 0 X
0.5 0.0 0.5 0 X
0.4897959183673469 0.0 0.4897959183673469 0
0.47959183673469385 0.0 0.47959183673469385 0
0.46938775510204084 0.0 0.46938775510204084 0
0.45918367346938777 0.0 0.45918367346938777 0
0.4489795918367347 0.0 0.4489795918367347 0
0.4387755102040816 0.0 0.4387755102040816 0
0.4285714285714286 0.0 0.4285714285714286 0
0.41836734693877553 0.0 0.41836734693877553 0
0.40816326530612246 0.0 0.40816326530612246 0
0.3979591836734694 0.0 0.3979591836734694 0
0.3877551020408163 0.0 0.3877551020408163 0
0.37755102040816324 0.0 0.37755102040816324 0
0.3673469387755102 0.0 0.3673469387755102 0
0.35714285714285715 0.0 0.35714285714285715 0
0.34693877551020413 0.0 0.34693877551020413 0
0.33673469387755106 0.0 0.33673469387755106 0
0.326530612244898 0.0 0.326530612244898 0
0.3163265306122449 0.0 0.3163265306122449 0
0.30612244897959184 0.0 0.30612244897959184 0
0.29591836734693877 0.0 0.29591836734693877 0
0.2857142857142857 0.0 0.2857142857142857 0
0.2755102040816327 0.0 0.2755102040816327 0
0.2653061224489796 0.0 0.2653061224489796 0
0.25510204081632654 0.0 0.25510204081632654 0
0.24489795918367346 0.0 0.24489795918367346 0
0.23469387755102045 0.0 0.23469387755102045 0
0.22448979591836737 0.0 0.22448979591836737 0
0.2142857142857143 0.0 0.2142857142857143 0
0.20408163265306123 0.0 0.20408163265306123 0
0.1938775510204082 0.0 0.1938775510204082 0
0.18367346938775514 0.0 0.18367346938775514 0
0.17346938775510207 0.0 0.17346938775510207 0
0.163265306122449 0.0 0.163265306122449 0
0.15306122448979592 0.0 0.15306122448979592 0
0.1428571428571429 0.0 0.1428571428571429 0
0.13265306122448983 0.0 0.13265306122448983 0
0.12244897959183676 0.0 0.12244897959183676 0
0.11224489795918369 0.0 0.11224489795918369 0
0.10204081632653067 0.0 0.10204081632653067 0
0.0918367346938776 0.0 0.0918367346938776 0
0.08163265306122452 0.0 0.08163265306122452 0
0.07142857142857145 0.0 0.07142857142857145 0
0.06122448979591838 0.0 0.06122448979591838 0
0.05102040816326536 0.0 0.05102040816326536 0
0.04081632653061229 0.0 0.04081632653061229 0
0.030612244897959218 0.0 0.030612244897959218 0
0.020408163265306145 0.0 0.020408163265306145 0
0.010204081632653073 0.0 0.010204081632653073 0
0.0 0.0 0.0 0 G