# general 
ALGO = Fast     # Mixture of Davidson and RMM-DIIS algos
PREC = N        # Normal precision
EDIFF = 1e-5    # Convergence criteria for electronic converge
NELM = 500      # Max number of electronic steps
ENCUT = 400     # Cut off energy
LASPH = True    # Include non-spherical contributions from gradient corrections
NBANDS = 15    # Number of bands to include in the calculation
BMIX = 3        # Mixing parameter for convergence
AMIN = 0.01     # Mixing parameter for convergence 
SIGMA = 0.05    # Width of smearing in eV

# parallelization
KPAR = 4        # The number of k-points to be treated in parallel
NPAR = 7        # The number of bands to be treated in parallel

# scf 
ICHARG = 2      # Generate CHG* from a superposition of atomic charge densities
ISMEAR = 0      # Fermi smearing
LCHARG = True   # Write the CHG* files
LWAVE = True    # Does not write the WAVECAR

# soc 
LSORBIT = True  # Turn on spin-orbit coupling
MAGMOM = 6*0 # Set the magnetic moment for each atom (3 for each atom)
