In1 As1
1.0
0.000000 3.029200 3.029200
3.029200 0.000000 3.029200
3.029200 3.029200 0.000000
In As
1 1
direct
0.000000 0.000000 0.000000 In
0.750000 0.750000 0.750000 As
