INCAR created by Atomic Simulation Environment
 ENCUT = 450.000000
 SIGMA = 0.100000
 GGA = PE
 ICHARG = 2
 ISTART = 0
