KPOINTS created by Atomic Simulation Environment
0
Gamma
5 5 5 
0 0 0
