KPOINTS created by Atomic Simulation Environment
0
Gamma
3 3 3 
0 0 0
