Automatically generated mesh
280
Reciprocal lattice
    0.00000000000000    0.00000000000000    0.00000000000000             1
    0.14285714285714    0.00000000000000    0.00000000000000             4
    0.28571428571429    0.00000000000000    0.00000000000000             4
    0.42857142857143    0.00000000000000    0.00000000000000             4
   -0.42857142857143    0.00000000000000    0.00000000000000             4
   -0.28571428571429    0.00000000000000    0.00000000000000             4
   -0.14285714285714    0.00000000000000    0.00000000000000             4
    0.14285714285714    0.14285714285714    0.00000000000000             6
    0.28571428571429    0.14285714285714    0.00000000000000            12
    0.42857142857143    0.14285714285714    0.00000000000000            12
   -0.42857142857143    0.14285714285714    0.00000000000000            12
   -0.28571428571429    0.14285714285714    0.00000000000000            12
   -0.14285714285714    0.14285714285714    0.00000000000000            12
    0.28571428571429    0.28571428571429    0.00000000000000             6
    0.42857142857143    0.28571428571429    0.00000000000000            12
   -0.42857142857143    0.28571428571429    0.00000000000000            12
   -0.28571428571429    0.28571428571429    0.00000000000000            12
   -0.14285714285714    0.28571428571429    0.00000000000000            12
    0.42857142857143    0.42857142857143    0.00000000000000             6
   -0.42857142857143    0.42857142857143    0.00000000000000            12
   -0.28571428571429    0.42857142857143    0.00000000000000            12
   -0.14285714285714    0.42857142857143    0.00000000000000            12
   -0.28571428571429   -0.42857142857143    0.00000000000000            12
   -0.14285714285714   -0.42857142857143    0.00000000000000            12
   -0.14285714285714   -0.28571428571429    0.00000000000000            12
    0.42857142857143    0.28571428571429    0.14285714285714            24
   -0.42857142857143    0.28571428571429    0.14285714285714            24
   -0.28571428571429    0.28571428571429    0.14285714285714            24
   -0.42857142857143    0.42857142857143    0.14285714285714            24
   -0.28571428571429    0.42857142857143    0.14285714285714            24
0.0 0.0 0.0 0 G
0.01020408163265306 0.0 0.01020408163265306 0
0.02040816326530612 0.0 0.02040816326530612 0
0.030612244897959183 0.0 0.030612244897959183 0
0.04081632653061224 0.0 0.04081632653061224 0
0.0510204081632653 0.0 0.0510204081632653 0
0.061224489795918366 0.0 0.061224489795918366 0
0.07142857142857142 0.0 0.07142857142857142 0
0.08163265306122448 0.0 0.08163265306122448 0
0.09183673469387754 0.0 0.09183673469387754 0
0.1020408163265306 0.0 0.1020408163265306 0
0.11224489795918366 0.0 0.11224489795918366 0
0.12244897959183673 0.0 0.12244897959183673 0
0.13265306122448978 0.0 0.13265306122448978 0
0.14285714285714285 0.0 0.14285714285714285 0
0.1530612244897959 0.0 0.1530612244897959 0
0.16326530612244897 0.0 0.16326530612244897 0
0.17346938775510204 0.0 0.17346938775510204 0
0.18367346938775508 0.0 0.18367346938775508 0
0.19387755102040816 0.0 0.19387755102040816 0
0.2040816326530612 0.0 0.2040816326530612 0
0.21428571428571427 0.0 0.21428571428571427 0
0.22448979591836732 0.0 0.22448979591836732 0
0.2346938775510204 0.0 0.2346938775510204 0
0.24489795918367346 0.0 0.24489795918367346 0
0.25510204081632654 0.0 0.25510204081632654 0
0.26530612244897955 0.0 0.26530612244897955 0
0.2755102040816326 0.0 0.2755102040816326 0
0.2857142857142857 0.0 0.2857142857142857 0
0.29591836734693877 0.0 0.29591836734693877 0
0.3061224489795918 0.0 0.3061224489795918 0
0.31632653061224486 0.0 0.31632653061224486 0
0.32653061224489793 0.0 0.32653061224489793 0
0.336734693877551 0.0 0.336734693877551 0
0.3469387755102041 0.0 0.3469387755102041 0
0.3571428571428571 0.0 0.3571428571428571 0
0.36734693877551017 0.0 0.36734693877551017 0
0.37755102040816324 0.0 0.37755102040816324 0
0.3877551020408163 0.0 0.3877551020408163 0
0.39795918367346933 0.0 0.39795918367346933 0
0.4081632653061224 0.0 0.4081632653061224 0
0.4183673469387755 0.0 0.4183673469387755 0
0.42857142857142855 0.0 0.42857142857142855 0
0.4387755102040816 0.0 0.4387755102040816 0
0.44897959183673464 0.0 0.44897959183673464 0
0.4591836734693877 0.0 0.4591836734693877 0
0.4693877551020408 0.0 0.4693877551020408 0
0.47959183673469385 0.0 0.47959183673469385 0
0.4897959183673469 0.0 0.4897959183673469 0
0.5 0.0 0.5 0 X
0.5 0.0 0.5 0 X
0.5 0.00510204081632653 0.5051020408163265 0
0.5 0.01020408163265306 0.5102040816326531 0
0.5 0.015306122448979591 0.5153061224489796 0
0.5 0.02040816326530612 0.5204081632653061 0
0.5 0.02551020408163265 0.5255102040816326 0
0.5 0.030612244897959183 0.5306122448979592 0
0.5 0.03571428571428571 0.5357142857142857 0
0.5 0.04081632653061224 0.5408163265306123 0
0.5 0.04591836734693877 0.5459183673469388 0
0.5 0.0510204081632653 0.5510204081632653 0
0.5 0.05612244897959183 0.5561224489795918 0
0.5 0.061224489795918366 0.5612244897959183 0
0.5 0.06632653061224489 0.5663265306122449 0
0.5 0.07142857142857142 0.5714285714285714 0
0.5 0.07653061224489795 0.576530612244898 0
0.5 0.08163265306122448 0.5816326530612245 0
0.5 0.08673469387755102 0.5867346938775511 0
0.5 0.09183673469387754 0.5918367346938775 0
0.5 0.09693877551020408 0.596938775510204 0
0.5 0.1020408163265306 0.6020408163265306 0
0.5 0.10714285714285714 0.6071428571428571 0
0.5 0.11224489795918366 0.6122448979591837 0
0.5 0.1173469387755102 0.6173469387755102 0
0.5 0.12244897959183673 0.6224489795918368 0
0.5 0.12755102040816327 0.6275510204081632 0
0.5 0.13265306122448978 0.6326530612244898 0
0.5 0.1377551020408163 0.6377551020408163 0
0.5 0.14285714285714285 0.6428571428571428 0
0.5 0.14795918367346939 0.6479591836734694 0
0.5 0.1530612244897959 0.6530612244897959 0
0.5 0.15816326530612243 0.6581632653061225 0
0.5 0.16326530612244897 0.6632653061224489 0
0.5 0.1683673469387755 0.6683673469387755 0
0.5 0.17346938775510204 0.673469387755102 0
0.5 0.17857142857142855 0.6785714285714286 0
0.5 0.18367346938775508 0.6836734693877551 0
0.5 0.18877551020408162 0.6887755102040816 0
0.5 0.19387755102040816 0.6938775510204082 0
0.5 0.19897959183673466 0.6989795918367346 0
0.5 0.2040816326530612 0.7040816326530612 0
0.5 0.20918367346938774 0.7091836734693877 0
0.5 0.21428571428571427 0.7142857142857143 0
0.5 0.2193877551020408 0.7193877551020408 0
0.5 0.22448979591836732 0.7244897959183674 0
0.5 0.22959183673469385 0.7295918367346939 0
0.5 0.2346938775510204 0.7346938775510203 0
0.5 0.23979591836734693 0.7397959183673469 0
0.5 0.24489795918367346 0.7448979591836735 0
0.5 0.25 0.75 0 W
0.5 0.25 0.75 0 W
0.5 0.25510204081632654 0.7448979591836735 0
0.5 0.2602040816326531 0.7397959183673469 0
0.5 0.2653061224489796 0.7346938775510204 0
0.5 0.27040816326530615 0.7295918367346939 0
0.5 0.2755102040816326 0.7244897959183674 0
0.5 0.28061224489795916 0.7193877551020408 0
0.5 0.2857142857142857 0.7142857142857143 0
0.5 0.29081632653061223 0.7091836734693877 0
0.5 0.29591836734693877 0.7040816326530612 0
0.5 0.3010204081632653 0.6989795918367347 0
0.5 0.30612244897959184 0.6938775510204082 0
0.5 0.3112244897959184 0.6887755102040817 0
0.5 0.3163265306122449 0.6836734693877551 0
0.5 0.3214285714285714 0.6785714285714286 0
0.5 0.32653061224489793 0.673469387755102 0
0.5 0.33163265306122447 0.6683673469387755 0
0.5 0.336734693877551 0.6632653061224489 0
0.5 0.34183673469387754 0.6581632653061225 0
0.5 0.3469387755102041 0.653061224489796 0
0.5 0.3520408163265306 0.6479591836734694 0
0.5 0.35714285714285715 0.6428571428571429 0
0.5 0.3622448979591837 0.6377551020408163 0
0.5 0.36734693877551017 0.6326530612244898 0
0.5 0.37244897959183676 0.6275510204081632 0
0.5 0.37755102040816324 0.6224489795918368 0
0.5 0.3826530612244898 0.6173469387755102 0
0.5 0.3877551020408163 0.6122448979591837 0
0.5 0.39285714285714285 0.6071428571428572 0
0.5 0.3979591836734694 0.6020408163265306 0
0.5 0.40306122448979587 0.5969387755102041 0
0.5 0.40816326530612246 0.5918367346938775 0
0.5 0.41326530612244894 0.5867346938775511 0
0.5 0.41836734693877553 0.5816326530612245 0
0.5 0.423469387755102 0.576530612244898 0
0.5 0.42857142857142855 0.5714285714285714 0
0.5 0.4336734693877551 0.5663265306122449 0
0.5 0.4387755102040816 0.5612244897959184 0
0.5 0.44387755102040816 0.5561224489795918 0
0.5 0.44897959183673464 0.5510204081632654 0
0.5 0.45408163265306123 0.5459183673469388 0
0.5 0.4591836734693877 0.5408163265306123 0
0.5 0.4642857142857143 0.5357142857142857 0
0.5 0.4693877551020408 0.5306122448979592 0
0.5 0.4744897959183673 0.5255102040816326 0
0.5 0.47959183673469385 0.5204081632653061 0
0.5 0.4846938775510204 0.5153061224489797 0
0.5 0.4897959183673469 0.5102040816326531 0
0.5 0.49489795918367346 0.5051020408163265 0
0.5 0.5 0.5 0 L
0.5 0.5 0.5 0 L
0.4897959183673469 0.4897959183673469 0.4897959183673469 0
0.47959183673469385 0.47959183673469385 0.47959183673469385 0
0.46938775510204084 0.46938775510204084 0.46938775510204084 0
0.45918367346938777 0.45918367346938777 0.45918367346938777 0
0.4489795918367347 0.4489795918367347 0.4489795918367347 0
0.4387755102040816 0.4387755102040816 0.4387755102040816 0
0.4285714285714286 0.4285714285714286 0.4285714285714286 0
0.41836734693877553 0.41836734693877553 0.41836734693877553 0
0.40816326530612246 0.40816326530612246 0.40816326530612246 0
0.3979591836734694 0.3979591836734694 0.3979591836734694 0
0.3877551020408163 0.3877551020408163 0.3877551020408163 0
0.37755102040816324 0.37755102040816324 0.37755102040816324 0
0.3673469387755102 0.3673469387755102 0.3673469387755102 0
0.35714285714285715 0.35714285714285715 0.35714285714285715 0
0.34693877551020413 0.34693877551020413 0.34693877551020413 0
0.33673469387755106 0.33673469387755106 0.33673469387755106 0
0.326530612244898 0.326530612244898 0.326530612244898 0
0.3163265306122449 0.3163265306122449 0.3163265306122449 0
0.30612244897959184 0.30612244897959184 0.30612244897959184 0
0.29591836734693877 0.29591836734693877 0.29591836734693877 0
0.2857142857142857 0.2857142857142857 0.2857142857142857 0
0.2755102040816327 0.2755102040816327 0.2755102040816327 0
0.2653061224489796 0.2653061224489796 0.2653061224489796 0
0.25510204081632654 0.25510204081632654 0.25510204081632654 0
0.24489795918367346 0.24489795918367346 0.24489795918367346 0
0.23469387755102045 0.23469387755102045 0.23469387755102045 0
0.22448979591836737 0.22448979591836737 0.22448979591836737 0
0.2142857142857143 0.2142857142857143 0.2142857142857143 0
0.20408163265306123 0.20408163265306123 0.20408163265306123 0
0.1938775510204082 0.1938775510204082 0.1938775510204082 0
0.18367346938775514 0.18367346938775514 0.18367346938775514 0
0.17346938775510207 0.17346938775510207 0.17346938775510207 0
0.163265306122449 0.163265306122449 0.163265306122449 0
0.15306122448979592 0.15306122448979592 0.15306122448979592 0
0.1428571428571429 0.1428571428571429 0.1428571428571429 0
0.13265306122448983 0.13265306122448983 0.13265306122448983 0
0.12244897959183676 0.12244897959183676 0.12244897959183676 0
0.11224489795918369 0.11224489795918369 0.11224489795918369 0
0.10204081632653067 0.10204081632653067 0.10204081632653067 0
0.0918367346938776 0.0918367346938776 0.0918367346938776 0
0.08163265306122452 0.08163265306122452 0.08163265306122452 0
0.07142857142857145 0.07142857142857145 0.07142857142857145 0
0.06122448979591838 0.06122448979591838 0.06122448979591838 0
0.05102040816326536 0.05102040816326536 0.05102040816326536 0
0.04081632653061229 0.04081632653061229 0.04081632653061229 0
0.030612244897959218 0.030612244897959218 0.030612244897959218 0
0.020408163265306145 0.020408163265306145 0.020408163265306145 0
0.010204081632653073 0.010204081632653073 0.010204081632653073 0
0.0 0.0 0.0 0 G
0.0 0.0 0.0 0 G
0.007653061224489796 0.007653061224489796 0.015306122448979591 0
0.015306122448979591 0.015306122448979591 0.030612244897959183 0
0.022959183673469385 0.022959183673469385 0.04591836734693877 0
0.030612244897959183 0.030612244897959183 0.061224489795918366 0
0.03826530612244898 0.03826530612244898 0.07653061224489796 0
0.04591836734693877 0.04591836734693877 0.09183673469387754 0
0.05357142857142857 0.05357142857142857 0.10714285714285714 0
0.061224489795918366 0.061224489795918366 0.12244897959183673 0
0.06887755102040816 0.06887755102040816 0.1377551020408163 0
0.07653061224489796 0.07653061224489796 0.15306122448979592 0
0.08418367346938775 0.08418367346938775 0.1683673469387755 0
0.09183673469387754 0.09183673469387754 0.18367346938775508 0
0.09948979591836735 0.09948979591836735 0.1989795918367347 0
0.10714285714285714 0.10714285714285714 0.21428571428571427 0
0.11479591836734694 0.11479591836734694 0.22959183673469388 0
0.12244897959183673 0.12244897959183673 0.24489795918367346 0
0.13010204081632654 0.13010204081632654 0.2602040816326531 0
0.1377551020408163 0.1377551020408163 0.2755102040816326 0
0.14540816326530612 0.14540816326530612 0.29081632653061223 0
0.15306122448979592 0.15306122448979592 0.30612244897959184 0
0.1607142857142857 0.1607142857142857 0.3214285714285714 0
0.1683673469387755 0.1683673469387755 0.336734693877551 0
0.1760204081632653 0.1760204081632653 0.3520408163265306 0
0.18367346938775508 0.18367346938775508 0.36734693877551017 0
0.1913265306122449 0.1913265306122449 0.3826530612244898 0
0.1989795918367347 0.1989795918367347 0.3979591836734694 0
0.2066326530612245 0.2066326530612245 0.413265306122449 0
0.21428571428571427 0.21428571428571427 0.42857142857142855 0
0.22193877551020408 0.22193877551020408 0.44387755102040816 0
0.22959183673469388 0.22959183673469388 0.45918367346938777 0
0.23724489795918366 0.23724489795918366 0.4744897959183673 0
0.24489795918367346 0.24489795918367346 0.4897959183673469 0
0.25255102040816324 0.25255102040816324 0.5051020408163265 0
0.2602040816326531 0.2602040816326531 0.5204081632653061 0
0.26785714285714285 0.26785714285714285 0.5357142857142857 0
0.2755102040816326 0.2755102040816326 0.5510204081632653 0
0.28316326530612246 0.28316326530612246 0.5663265306122449 0
0.29081632653061223 0.29081632653061223 0.5816326530612245 0
0.298469387755102 0.298469387755102 0.596938775510204 0
0.30612244897959184 0.30612244897959184 0.6122448979591837 0
0.3137755102040816 0.3137755102040816 0.6275510204081632 0
0.3214285714285714 0.3214285714285714 0.6428571428571428 0
0.32908163265306123 0.32908163265306123 0.6581632653061225 0
0.336734693877551 0.336734693877551 0.673469387755102 0
0.3443877551020408 0.3443877551020408 0.6887755102040816 0
0.3520408163265306 0.3520408163265306 0.7040816326530612 0
0.3596938775510204 0.3596938775510204 0.7193877551020408 0
0.36734693877551017 0.36734693877551017 0.7346938775510203 0
0.375 0.375 0.75 0 K
