Automatically generated mesh
122
Reciprocal lattice
    0.00000000000000    0.00000000000000    0.00000000000000             1
    0.16666666666667    0.00000000000000    0.00000000000000             4
    0.33333333333333    0.00000000000000    0.00000000000000             4
    0.50000000000000    0.00000000000000    0.00000000000000             4
   -0.33333333333333    0.00000000000000    0.00000000000000             4
   -0.16666666666667    0.00000000000000    0.00000000000000             4
    0.16666666666667    0.16666666666667    0.00000000000000             6
    0.33333333333333    0.16666666666667    0.00000000000000            12
    0.50000000000000    0.16666666666667    0.00000000000000            12
   -0.33333333333333    0.16666666666667    0.00000000000000            12
   -0.16666666666667    0.16666666666667    0.00000000000000            12
    0.33333333333333    0.33333333333333    0.00000000000000             6
    0.50000000000000    0.33333333333333    0.00000000000000            12
   -0.33333333333333    0.33333333333333    0.00000000000000            12
   -0.16666666666667    0.33333333333333    0.00000000000000            12
    0.50000000000000    0.50000000000000    0.00000000000000             3
   -0.33333333333333    0.50000000000000    0.00000000000000            12
   -0.16666666666667    0.50000000000000    0.00000000000000            12
   -0.16666666666667   -0.33333333333333    0.00000000000000            12
    0.50000000000000    0.33333333333333    0.16666666666667            24
   -0.33333333333333    0.33333333333333    0.16666666666667            24
   -0.33333333333333    0.50000000000000    0.16666666666667            12
0.0 0.0 0.0 0 G
0.02631578947368421 0.0 0.02631578947368421 0
0.05263157894736842 0.0 0.05263157894736842 0
0.07894736842105263 0.0 0.07894736842105263 0
0.10526315789473684 0.0 0.10526315789473684 0
0.13157894736842105 0.0 0.13157894736842105 0
0.15789473684210525 0.0 0.15789473684210525 0
0.18421052631578946 0.0 0.18421052631578946 0
0.21052631578947367 0.0 0.21052631578947367 0
0.23684210526315788 0.0 0.23684210526315788 0
0.2631578947368421 0.0 0.2631578947368421 0
0.2894736842105263 0.0 0.2894736842105263 0
0.3157894736842105 0.0 0.3157894736842105 0
0.3421052631578947 0.0 0.3421052631578947 0
0.3684210526315789 0.0 0.3684210526315789 0
0.39473684210526316 0.0 0.39473684210526316 0
0.42105263157894735 0.0 0.42105263157894735 0
0.4473684210526315 0.0 0.4473684210526315 0
0.47368421052631576 0.0 0.47368421052631576 0
0.5 0.0 0.5 0 X
0.5 0.0 0.5 0 X
0.5 0.013157894736842105 0.5131578947368421 0
0.5 0.02631578947368421 0.5263157894736842 0
0.5 0.039473684210526314 0.5394736842105263 0
0.5 0.05263157894736842 0.5526315789473684 0
0.5 0.06578947368421052 0.5657894736842105 0
0.5 0.07894736842105263 0.5789473684210527 0
0.5 0.09210526315789473 0.5921052631578947 0
0.5 0.10526315789473684 0.6052631578947368 0
0.5 0.11842105263157894 0.618421052631579 0
0.5 0.13157894736842105 0.631578947368421 0
0.5 0.14473684210526316 0.6447368421052632 0
0.5 0.15789473684210525 0.6578947368421053 0
0.5 0.17105263157894735 0.6710526315789473 0
0.5 0.18421052631578946 0.6842105263157895 0
0.5 0.19736842105263158 0.6973684210526316 0
0.5 0.21052631578947367 0.7105263157894737 0
0.5 0.22368421052631576 0.7236842105263157 0
0.5 0.23684210526315788 0.7368421052631579 0
0.5 0.25 0.75 0 W
0.5 0.25 0.75 0 W
0.5 0.2631578947368421 0.7368421052631579 0
0.5 0.2763157894736842 0.7236842105263158 0
0.5 0.2894736842105263 0.7105263157894737 0
0.5 0.3026315789473684 0.6973684210526316 0
0.5 0.3157894736842105 0.6842105263157895 0
0.5 0.32894736842105265 0.6710526315789473 0
0.5 0.34210526315789475 0.6578947368421053 0
0.5 0.35526315789473684 0.6447368421052632 0
0.5 0.3684210526315789 0.631578947368421 0
0.5 0.381578947368421 0.618421052631579 0
0.5 0.39473684210526316 0.6052631578947368 0
0.5 0.40789473684210525 0.5921052631578947 0
0.5 0.42105263157894735 0.5789473684210527 0
0.5 0.4342105263157895 0.5657894736842105 0
0.5 0.4473684210526316 0.5526315789473684 0
0.5 0.4605263157894737 0.5394736842105263 0
0.5 0.47368421052631576 0.5263157894736843 0
0.5 0.48684210526315785 0.5131578947368421 0
0.5 0.5 0.5 0 L
0.5 0.5 0.5 0 L
0.4736842105263158 0.4736842105263158 0.4736842105263158 0
0.4473684210526316 0.4473684210526316 0.4473684210526316 0
0.42105263157894735 0.42105263157894735 0.42105263157894735 0
0.39473684210526316 0.39473684210526316 0.39473684210526316 0
0.368421052631579 0.368421052631579 0.368421052631579 0
0.34210526315789475 0.34210526315789475 0.34210526315789475 0
0.3157894736842105 0.3157894736842105 0.3157894736842105 0
0.2894736842105263 0.2894736842105263 0.2894736842105263 0
0.26315789473684215 0.26315789473684215 0.26315789473684215 0
0.2368421052631579 0.2368421052631579 0.2368421052631579 0
0.21052631578947367 0.21052631578947367 0.21052631578947367 0
0.1842105263157895 0.1842105263157895 0.1842105263157895 0
0.1578947368421053 0.1578947368421053 0.1578947368421053 0
0.13157894736842107 0.13157894736842107 0.13157894736842107 0
0.10526315789473684 0.10526315789473684 0.10526315789473684 0
0.07894736842105265 0.07894736842105265 0.07894736842105265 0
0.052631578947368474 0.052631578947368474 0.052631578947368474 0
0.026315789473684237 0.026315789473684237 0.026315789473684237 0
0.0 0.0 0.0 0 G
0.0 0.0 0.0 0 G
0.019736842105263157 0.019736842105263157 0.039473684210526314 0
0.039473684210526314 0.039473684210526314 0.07894736842105263 0
0.05921052631578947 0.05921052631578947 0.11842105263157894 0
0.07894736842105263 0.07894736842105263 0.15789473684210525 0
0.09868421052631579 0.09868421052631579 0.19736842105263158 0
0.11842105263157894 0.11842105263157894 0.23684210526315788 0
0.1381578947368421 0.1381578947368421 0.2763157894736842 0
0.15789473684210525 0.15789473684210525 0.3157894736842105 0
0.17763157894736842 0.17763157894736842 0.35526315789473684 0
0.19736842105263158 0.19736842105263158 0.39473684210526316 0
0.21710526315789472 0.21710526315789472 0.43421052631578944 0
0.23684210526315788 0.23684210526315788 0.47368421052631576 0
0.256578947368421 0.256578947368421 0.513157894736842 0
0.2763157894736842 0.2763157894736842 0.5526315789473684 0
0.29605263157894735 0.29605263157894735 0.5921052631578947 0
0.3157894736842105 0.3157894736842105 0.631578947368421 0
0.3355263157894737 0.3355263157894737 0.6710526315789473 0
0.35526315789473684 0.35526315789473684 0.7105263157894737 0
0.375 0.375 0.75 0 K
