Automatically generated mesh
	280
Reciprocal lattice
    0.00000000000000    0.00000000000000    0.00000000000000             1
    0.14285714285714    0.00000000000000    0.00000000000000             4
    0.28571428571429    0.00000000000000    0.00000000000000             4
    0.42857142857143    0.00000000000000    0.00000000000000             4
   -0.42857142857143    0.00000000000000    0.00000000000000             4
   -0.28571428571429    0.00000000000000    0.00000000000000             4
   -0.14285714285714    0.00000000000000    0.00000000000000             4
    0.14285714285714    0.14285714285714    0.00000000000000             6
    0.28571428571429    0.14285714285714    0.00000000000000            12
    0.42857142857143    0.14285714285714    0.00000000000000            12
   -0.42857142857143    0.14285714285714    0.00000000000000            12
   -0.28571428571429    0.14285714285714    0.00000000000000            12
   -0.14285714285714    0.14285714285714    0.00000000000000            12
    0.28571428571429    0.28571428571429    0.00000000000000             6
    0.42857142857143    0.28571428571429    0.00000000000000            12
   -0.42857142857143    0.28571428571429    0.00000000000000            12
   -0.28571428571429    0.28571428571429    0.00000000000000            12
   -0.14285714285714    0.28571428571429    0.00000000000000            12
    0.42857142857143    0.42857142857143    0.00000000000000             6
   -0.42857142857143    0.42857142857143    0.00000000000000            12
   -0.28571428571429    0.42857142857143    0.00000000000000            12
   -0.14285714285714    0.42857142857143    0.00000000000000            12
   -0.28571428571429   -0.42857142857143    0.00000000000000            12
   -0.14285714285714   -0.42857142857143    0.00000000000000            12
   -0.14285714285714   -0.28571428571429    0.00000000000000            12
    0.42857142857143    0.28571428571429    0.14285714285714            24
   -0.42857142857143    0.28571428571429    0.14285714285714            24
   -0.28571428571429    0.28571428571429    0.14285714285714            24
   -0.42857142857143    0.42857142857143    0.14285714285714            24
   -0.28571428571429    0.42857142857143    0.14285714285714            24
	0.00000000000000	0.00000000000000	0.00000000000000			 0
	0.01020408163265	0.00000000000000	0.01020408163265			 0
	0.02040816326531	0.00000000000000	0.02040816326531			 0
	0.03061224489796	0.00000000000000	0.03061224489796			 0
	0.04081632653061	0.00000000000000	0.04081632653061			 0
	0.05102040816327	0.00000000000000	0.05102040816327			 0
	0.06122448979592	0.00000000000000	0.06122448979592			 0
	0.07142857142857	0.00000000000000	0.07142857142857			 0
	0.08163265306122	0.00000000000000	0.08163265306122			 0
	0.09183673469388	0.00000000000000	0.09183673469388			 0
	0.10204081632653	0.00000000000000	0.10204081632653			 0
	0.11224489795918	0.00000000000000	0.11224489795918			 0
	0.12244897959184	0.00000000000000	0.12244897959184			 0
	0.13265306122449	0.00000000000000	0.13265306122449			 0
	0.14285714285714	0.00000000000000	0.14285714285714			 0
	0.15306122448980	0.00000000000000	0.15306122448980			 0
	0.16326530612245	0.00000000000000	0.16326530612245			 0
	0.17346938775510	0.00000000000000	0.17346938775510			 0
	0.18367346938776	0.00000000000000	0.18367346938776			 0
	0.19387755102041	0.00000000000000	0.19387755102041			 0
	0.20408163265306	0.00000000000000	0.20408163265306			 0
	0.21428571428571	0.00000000000000	0.21428571428571			 0
	0.22448979591837	0.00000000000000	0.22448979591837			 0
	0.23469387755102	0.00000000000000	0.23469387755102			 0
	0.24489795918367	0.00000000000000	0.24489795918367			 0
	0.25510204081633	0.00000000000000	0.25510204081633			 0
	0.26530612244898	0.00000000000000	0.26530612244898			 0
	0.27551020408163	0.00000000000000	0.27551020408163			 0
	0.28571428571429	0.00000000000000	0.28571428571429			 0
	0.29591836734694	0.00000000000000	0.29591836734694			 0
	0.30612244897959	0.00000000000000	0.30612244897959			 0
	0.31632653061224	0.00000000000000	0.31632653061224			 0
	0.32653061224490	0.00000000000000	0.32653061224490			 0
	0.33673469387755	0.00000000000000	0.33673469387755			 0
	0.34693877551020	0.00000000000000	0.34693877551020			 0
	0.35714285714286	0.00000000000000	0.35714285714286			 0
	0.36734693877551	0.00000000000000	0.36734693877551			 0
	0.37755102040816	0.00000000000000	0.37755102040816			 0
	0.38775510204082	0.00000000000000	0.38775510204082			 0
	0.39795918367347	0.00000000000000	0.39795918367347			 0
	0.40816326530612	0.00000000000000	0.40816326530612			 0
	0.41836734693878	0.00000000000000	0.41836734693878			 0
	0.42857142857143	0.00000000000000	0.42857142857143			 0
	0.43877551020408	0.00000000000000	0.43877551020408			 0
	0.44897959183673	0.00000000000000	0.44897959183673			 0
	0.45918367346939	0.00000000000000	0.45918367346939			 0
	0.46938775510204	0.00000000000000	0.46938775510204			 0
	0.47959183673469	0.00000000000000	0.47959183673469			 0
	0.48979591836735	0.00000000000000	0.48979591836735			 0
	0.50000000000000	0.00000000000000	0.50000000000000			 0
	0.50000000000000	0.00000000000000	0.50000000000000			 0
	0.50000000000000	0.00510204081633	0.50510204081633			 0
	0.50000000000000	0.01020408163265	0.51020408163265			 0
	0.50000000000000	0.01530612244898	0.51530612244898			 0
	0.50000000000000	0.02040816326531	0.52040816326531			 0
	0.50000000000000	0.02551020408163	0.52551020408163			 0
	0.50000000000000	0.03061224489796	0.53061224489796			 0
	0.50000000000000	0.03571428571429	0.53571428571429			 0
	0.50000000000000	0.04081632653061	0.54081632653061			 0
	0.50000000000000	0.04591836734694	0.54591836734694			 0
	0.50000000000000	0.05102040816327	0.55102040816327			 0
	0.50000000000000	0.05612244897959	0.55612244897959			 0
	0.50000000000000	0.06122448979592	0.56122448979592			 0
	0.50000000000000	0.06632653061224	0.56632653061224			 0
	0.50000000000000	0.07142857142857	0.57142857142857			 0
	0.50000000000000	0.07653061224490	0.57653061224490			 0
	0.50000000000000	0.08163265306122	0.58163265306122			 0
	0.50000000000000	0.08673469387755	0.58673469387755			 0
	0.50000000000000	0.09183673469388	0.59183673469388			 0
	0.50000000000000	0.09693877551020	0.59693877551020			 0
	0.50000000000000	0.10204081632653	0.60204081632653			 0
	0.50000000000000	0.10714285714286	0.60714285714286			 0
	0.50000000000000	0.11224489795918	0.61224489795918			 0
	0.50000000000000	0.11734693877551	0.61734693877551			 0
	0.50000000000000	0.12244897959184	0.62244897959184			 0
	0.50000000000000	0.12755102040816	0.62755102040816			 0
	0.50000000000000	0.13265306122449	0.63265306122449			 0
	0.50000000000000	0.13775510204082	0.63775510204082			 0
	0.50000000000000	0.14285714285714	0.64285714285714			 0
	0.50000000000000	0.14795918367347	0.64795918367347			 0
	0.50000000000000	0.15306122448980	0.65306122448980			 0
	0.50000000000000	0.15816326530612	0.65816326530612			 0
	0.50000000000000	0.16326530612245	0.66326530612245			 0
	0.50000000000000	0.16836734693878	0.66836734693878			 0
	0.50000000000000	0.17346938775510	0.67346938775510			 0
	0.50000000000000	0.17857142857143	0.67857142857143			 0
	0.50000000000000	0.18367346938776	0.68367346938776			 0
	0.50000000000000	0.18877551020408	0.68877551020408			 0
	0.50000000000000	0.19387755102041	0.69387755102041			 0
	0.50000000000000	0.19897959183673	0.69897959183673			 0
	0.50000000000000	0.20408163265306	0.70408163265306			 0
	0.50000000000000	0.20918367346939	0.70918367346939			 0
	0.50000000000000	0.21428571428571	0.71428571428571			 0
	0.50000000000000	0.21938775510204	0.71938775510204			 0
	0.50000000000000	0.22448979591837	0.72448979591837			 0
	0.50000000000000	0.22959183673469	0.72959183673469			 0
	0.50000000000000	0.23469387755102	0.73469387755102			 0
	0.50000000000000	0.23979591836735	0.73979591836735			 0
	0.50000000000000	0.24489795918367	0.74489795918367			 0
	0.50000000000000	0.25000000000000	0.75000000000000			 0
	0.50000000000000	0.25000000000000	0.75000000000000			 0
	0.50000000000000	0.25510204081633	0.74489795918367			 0
	0.50000000000000	0.26020408163265	0.73979591836735			 0
	0.50000000000000	0.26530612244898	0.73469387755102			 0
	0.50000000000000	0.27040816326531	0.72959183673469			 0
	0.50000000000000	0.27551020408163	0.72448979591837			 0
	0.50000000000000	0.28061224489796	0.71938775510204			 0
	0.50000000000000	0.28571428571429	0.71428571428571			 0
	0.50000000000000	0.29081632653061	0.70918367346939			 0
	0.50000000000000	0.29591836734694	0.70408163265306			 0
	0.50000000000000	0.30102040816327	0.69897959183673			 0
	0.50000000000000	0.30612244897959	0.69387755102041			 0
	0.50000000000000	0.31122448979592	0.68877551020408			 0
	0.50000000000000	0.31632653061224	0.68367346938776			 0
	0.50000000000000	0.32142857142857	0.67857142857143			 0
	0.50000000000000	0.32653061224490	0.67346938775510			 0
	0.50000000000000	0.33163265306122	0.66836734693878			 0
	0.50000000000000	0.33673469387755	0.66326530612245			 0
	0.50000000000000	0.34183673469388	0.65816326530612			 0
	0.50000000000000	0.34693877551020	0.65306122448980			 0
	0.50000000000000	0.35204081632653	0.64795918367347			 0
	0.50000000000000	0.35714285714286	0.64285714285714			 0
	0.50000000000000	0.36224489795918	0.63775510204082			 0
	0.50000000000000	0.36734693877551	0.63265306122449			 0
	0.50000000000000	0.37244897959184	0.62755102040816			 0
	0.50000000000000	0.37755102040816	0.62244897959184			 0
	0.50000000000000	0.38265306122449	0.61734693877551			 0
	0.50000000000000	0.38775510204082	0.61224489795918			 0
	0.50000000000000	0.39285714285714	0.60714285714286			 0
	0.50000000000000	0.39795918367347	0.60204081632653			 0
	0.50000000000000	0.40306122448980	0.59693877551020			 0
	0.50000000000000	0.40816326530612	0.59183673469388			 0
	0.50000000000000	0.41326530612245	0.58673469387755			 0
	0.50000000000000	0.41836734693878	0.58163265306122			 0
	0.50000000000000	0.42346938775510	0.57653061224490			 0
	0.50000000000000	0.42857142857143	0.57142857142857			 0
	0.50000000000000	0.43367346938776	0.56632653061224			 0
	0.50000000000000	0.43877551020408	0.56122448979592			 0
	0.50000000000000	0.44387755102041	0.55612244897959			 0
	0.50000000000000	0.44897959183673	0.55102040816327			 0
	0.50000000000000	0.45408163265306	0.54591836734694			 0
	0.50000000000000	0.45918367346939	0.54081632653061			 0
	0.50000000000000	0.46428571428571	0.53571428571429			 0
	0.50000000000000	0.46938775510204	0.53061224489796			 0
	0.50000000000000	0.47448979591837	0.52551020408163			 0
	0.50000000000000	0.47959183673469	0.52040816326531			 0
	0.50000000000000	0.48469387755102	0.51530612244898			 0
	0.50000000000000	0.48979591836735	0.51020408163265			 0
	0.50000000000000	0.49489795918367	0.50510204081633			 0
	0.50000000000000	0.50000000000000	0.50000000000000			 0
	0.50000000000000	0.50000000000000	0.50000000000000			 0
	0.48979591836735	0.48979591836735	0.48979591836735			 0
	0.47959183673469	0.47959183673469	0.47959183673469			 0
	0.46938775510204	0.46938775510204	0.46938775510204			 0
	0.45918367346939	0.45918367346939	0.45918367346939			 0
	0.44897959183673	0.44897959183673	0.44897959183673			 0
	0.43877551020408	0.43877551020408	0.43877551020408			 0
	0.42857142857143	0.42857142857143	0.42857142857143			 0
	0.41836734693878	0.41836734693878	0.41836734693878			 0
	0.40816326530612	0.40816326530612	0.40816326530612			 0
	0.39795918367347	0.39795918367347	0.39795918367347			 0
	0.38775510204082	0.38775510204082	0.38775510204082			 0
	0.37755102040816	0.37755102040816	0.37755102040816			 0
	0.36734693877551	0.36734693877551	0.36734693877551			 0
	0.35714285714286	0.35714285714286	0.35714285714286			 0
	0.34693877551020	0.34693877551020	0.34693877551020			 0
	0.33673469387755	0.33673469387755	0.33673469387755			 0
	0.32653061224490	0.32653061224490	0.32653061224490			 0
	0.31632653061224	0.31632653061224	0.31632653061224			 0
	0.30612244897959	0.30612244897959	0.30612244897959			 0
	0.29591836734694	0.29591836734694	0.29591836734694			 0
	0.28571428571429	0.28571428571429	0.28571428571429			 0
	0.27551020408163	0.27551020408163	0.27551020408163			 0
	0.26530612244898	0.26530612244898	0.26530612244898			 0
	0.25510204081633	0.25510204081633	0.25510204081633			 0
	0.24489795918367	0.24489795918367	0.24489795918367			 0
	0.23469387755102	0.23469387755102	0.23469387755102			 0
	0.22448979591837	0.22448979591837	0.22448979591837			 0
	0.21428571428571	0.21428571428571	0.21428571428571			 0
	0.20408163265306	0.20408163265306	0.20408163265306			 0
	0.19387755102041	0.19387755102041	0.19387755102041			 0
	0.18367346938776	0.18367346938776	0.18367346938776			 0
	0.17346938775510	0.17346938775510	0.17346938775510			 0
	0.16326530612245	0.16326530612245	0.16326530612245			 0
	0.15306122448980	0.15306122448980	0.15306122448980			 0
	0.14285714285714	0.14285714285714	0.14285714285714			 0
	0.13265306122449	0.13265306122449	0.13265306122449			 0
	0.12244897959184	0.12244897959184	0.12244897959184			 0
	0.11224489795918	0.11224489795918	0.11224489795918			 0
	0.10204081632653	0.10204081632653	0.10204081632653			 0
	0.09183673469388	0.09183673469388	0.09183673469388			 0
	0.08163265306122	0.08163265306122	0.08163265306122			 0
	0.07142857142857	0.07142857142857	0.07142857142857			 0
	0.06122448979592	0.06122448979592	0.06122448979592			 0
	0.05102040816327	0.05102040816327	0.05102040816327			 0
	0.04081632653061	0.04081632653061	0.04081632653061			 0
	0.03061224489796	0.03061224489796	0.03061224489796			 0
	0.02040816326531	0.02040816326531	0.02040816326531			 0
	0.01020408163265	0.01020408163265	0.01020408163265			 0
	0.00000000000000	0.00000000000000	0.00000000000000			 0
	0.00000000000000	0.00000000000000	0.00000000000000			 0
	0.00765306122449	0.00765306122449	0.01530612244898			 0
	0.01530612244898	0.01530612244898	0.03061224489796			 0
	0.02295918367347	0.02295918367347	0.04591836734694			 0
	0.03061224489796	0.03061224489796	0.06122448979592			 0
	0.03826530612245	0.03826530612245	0.07653061224490			 0
	0.04591836734694	0.04591836734694	0.09183673469388			 0
	0.05357142857143	0.05357142857143	0.10714285714286			 0
	0.06122448979592	0.06122448979592	0.12244897959184			 0
	0.06887755102041	0.06887755102041	0.13775510204082			 0
	0.07653061224490	0.07653061224490	0.15306122448980			 0
	0.08418367346939	0.08418367346939	0.16836734693878			 0
	0.09183673469388	0.09183673469388	0.18367346938776			 0
	0.09948979591837	0.09948979591837	0.19897959183673			 0
	0.10714285714286	0.10714285714286	0.21428571428571			 0
	0.11479591836735	0.11479591836735	0.22959183673469			 0
	0.12244897959184	0.12244897959184	0.24489795918367			 0
	0.13010204081633	0.13010204081633	0.26020408163265			 0
	0.13775510204082	0.13775510204082	0.27551020408163			 0
	0.14540816326531	0.14540816326531	0.29081632653061			 0
	0.15306122448980	0.15306122448980	0.30612244897959			 0
	0.16071428571429	0.16071428571429	0.32142857142857			 0
	0.16836734693878	0.16836734693878	0.33673469387755			 0
	0.17602040816327	0.17602040816327	0.35204081632653			 0
	0.18367346938776	0.18367346938776	0.36734693877551			 0
	0.19132653061224	0.19132653061224	0.38265306122449			 0
	0.19897959183673	0.19897959183673	0.39795918367347			 0
	0.20663265306122	0.20663265306122	0.41326530612245			 0
	0.21428571428571	0.21428571428571	0.42857142857143			 0
	0.22193877551020	0.22193877551020	0.44387755102041			 0
	0.22959183673469	0.22959183673469	0.45918367346939			 0
	0.23724489795918	0.23724489795918	0.47448979591837			 0
	0.24489795918367	0.24489795918367	0.48979591836735			 0
	0.25255102040816	0.25255102040816	0.50510204081633			 0
	0.26020408163265	0.26020408163265	0.52040816326531			 0
	0.26785714285714	0.26785714285714	0.53571428571429			 0
	0.27551020408163	0.27551020408163	0.55102040816327			 0
	0.28316326530612	0.28316326530612	0.56632653061224			 0
	0.29081632653061	0.29081632653061	0.58163265306122			 0
	0.29846938775510	0.29846938775510	0.59693877551020			 0
	0.30612244897959	0.30612244897959	0.61224489795918			 0
	0.31377551020408	0.31377551020408	0.62755102040816			 0
	0.32142857142857	0.32142857142857	0.64285714285714			 0
	0.32908163265306	0.32908163265306	0.65816326530612			 0
	0.33673469387755	0.33673469387755	0.67346938775510			 0
	0.34438775510204	0.34438775510204	0.68877551020408			 0
	0.35204081632653	0.35204081632653	0.70408163265306			 0
	0.35969387755102	0.35969387755102	0.71938775510204			 0
	0.36734693877551	0.36734693877551	0.73469387755102			 0
	0.37500000000000	0.37500000000000	0.75000000000000			 0