INCAR created by Atomic Simulation Environment
 ENCUT = 450.000000
 SIGMA = 0.050000
 ALGO = D
 GGA = PE
 PREC = N
 ICHARG = 2
 ISTART = 0
 LMAXMIX = 2
 LDAU = .TRUE.
 LDAUL = 1
 LDAUU = -1.359
 LDAUJ = 0.000
