INCAR created by Atomic Simulation Environment
 ENCUT = 300.000000
 SIGMA = 0.050000
 EDIFF = 1.00e-04
 ALGO = D
 GGA = PE
 PREC = N
 ICHARG = 11
 LMAXMIX = 4
 SAXIS = 0.0000 0.0000 1.0000 
 LCHARG = .FALSE.
 LDAU = .TRUE.
 LWAVE = .FALSE.
 LSORBIT = .TRUE.
 LDAUL = 1 1
 LDAUU = 2.311 -10.000
 LDAUJ = 0.000 0.000
 ISPIN = 2
 MAGMOM = 2*0.0000 1*0.0000 2*0.0000 1*0.0000 
