band
20
Line_mode
Reciprocal
0.0 0.0 0.0 ! G
0.5 0.0 0.5 ! X

0.5 0.0 0.5 ! X
0.5 0.25 0.75 ! W

0.5 0.25 0.75 ! W
0.5 0.5 0.5 ! L

0.5 0.5 0.5 ! L
0.0 0.0 0.0 ! G

0.0 0.0 0.0 ! G
0.375 0.375 0.75 ! K

